NAME : local_0
TYPE : ATSP
DIMENSION : 40
EDGE_WEIGHT_TYPE : EXPLICIT
EDGE_WEIGHT_FORMAT : FULL_MATRIX
EDGE_WEIGHT_SECTION
0 10000000 10000000 10000000 10000000 10000000 10000000 10000000 10000000 10000000 621 10000000 10000000 10000000 10000000 10000000 10000000 10000000 10000000 10000000 10000000 10000000 10000000 764 440 10000000 706 513 10000000 10000000 10000000 10000000 10000000 10000000 818 10000000 619 10000000 10000000 10000000 
0 0 654 671 10000000 716 874 10000000 10000000 10000000 10000000 10000000 10000000 10000000 10000000 10000000 10000000 10000000 1076 10000000 1087 10000000 10000000 10000000 10000000 10000000 10000000 10000000 10000000 10000000 10000000 10000000 905 10000000 10000000 10000000 10000000 10000000 10000000 966 
0 654 0 636 811 665 837 914 10000000 10000000 10000000 10000000 919 10000000 10000000 10000000 1092 10000000 10000000 10000000 10000000 10000000 10000000 10000000 10000000 10000000 10000000 10000000 10000000 10000000 10000000 10000000 266 10000000 10000000 10000000 10000000 10000000 10000000 10000000 
0 671 636 0 776 10000000 10000000 10000000 928 10000000 10000000 10000000 524 10000000 10000000 10000000 10000000 10000000 10000000 10000000 10000000 10000000 10000000 10000000 10000000 845 10000000 10000000 10000000 10000000 10000000 10000000 779 10000000 10000000 10000000 10000000 10000000 10000000 707 
0 10000000 811 776 0 10000000 10000000 452 596 10000000 10000000 10000000 460 10000000 10000000 10000000 386 10000000 10000000 10000000 10000000 10000000 10000000 10000000 10000000 878 931 10000000 995 10000000 10000000 10000000 678 10000000 936 10000000 10000000 10000000 10000000 1033 
0 716 665 10000000 10000000 0 174 905 10000000 575 10000000 10000000 10000000 10000000 10000000 937 10000000 10000000 552 982 407 10000000 535 10000000 10000000 10000000 10000000 10000000 10000000 10000000 10000000 10000000 737 10000000 10000000 10000000 10000000 10000000 10000000 10000000 
0 860 837 10000000 10000000 174 0 10000000 10000000 453 10000000 10000000 10000000 973 10000000 856 10000000 10000000 392 854 247 10000000 498 10000000 10000000 10000000 10000000 10000000 10000000 930 10000000 10000000 909 10000000 10000000 960 10000000 909 10000000 10000000 
0 10000000 914 10000000 452 905 10000000 0 689 10000000 10000000 10000000 864 10000000 10000000 974 179 10000000 10000000 10000000 10000000 10000000 722 10000000 10000000 10000000 624 831 10000000 10000000 10000000 10000000 733 10000000 549 10000000 10000000 10000000 10000000 10000000 
0 10000000 10000000 928 596 10000000 10000000 689 0 10000000 10000000 614 578 10000000 866 10000000 547 10000000 10000000 10000000 10000000 10000000 1167 795 10000000 403 765 961 402 10000000 10000000 10000000 10000000 955 856 10000000 10000000 10000000 985 617 
0 10000000 10000000 10000000 10000000 575 453 10000000 10000000 0 10000000 10000000 10000000 530 10000000 446 10000000 10000000 358 408 257 10000000 305 10000000 10000000 10000000 10000000 10000000 10000000 527 1019 698 10000000 10000000 966 697 10000000 473 10000000 10000000 
0 10000000 10000000 10000000 10000000 10000000 10000000 10000000 10000000 10000000 0 720 10000000 10000000 10000000 10000000 10000000 527 10000000 10000000 10000000 10000000 10000000 447 1042 10000000 10000000 932 949 10000000 10000000 10000000 10000000 819 10000000 10000000 10000000 10000000 10000000 10000000 
0 10000000 10000000 10000000 10000000 10000000 10000000 10000000 614 10000000 720 0 10000000 10000000 700 10000000 10000000 812 10000000 10000000 10000000 10000000 10000000 291 10000000 618 874 1011 244 10000000 791 10000000 10000000 421 10000000 10000000 10000000 10000000 600 847 
0 10000000 919 524 460 10000000 10000000 864 578 10000000 10000000 10000000 0 10000000 10000000 10000000 763 10000000 10000000 10000000 10000000 10000000 10000000 10000000 10000000 664 10000000 10000000 918 10000000 10000000 10000000 913 10000000 10000000 10000000 10000000 10000000 10000000 681 
0 10000000 10000000 10000000 10000000 10000000 973 10000000 10000000 530 10000000 10000000 10000000 0 10000000 392 10000000 10000000 749 125 748 676 706 10000000 10000000 10000000 10000000 10000000 10000000 251 10000000 168 10000000 10000000 10000000 673 916 266 10000000 10000000 
0 10000000 10000000 10000000 10000000 10000000 10000000 10000000 866 10000000 10000000 700 10000000 10000000 0 10000000 10000000 10000000 940 10000000 10000000 10000000 10000000 970 10000000 542 10000000 10000000 626 10000000 328 10000000 10000000 561 10000000 768 10000000 10000000 331 537 
0 10000000 10000000 10000000 10000000 937 856 974 10000000 446 10000000 10000000 10000000 392 10000000 0 10000000 10000000 792 318 700 10000000 426 10000000 790 10000000 815 779 10000000 577 10000000 509 10000000 10000000 703 914 677 134 10000000 10000000 
0 10000000 1090 10000000 386 10000000 10000000 179 547 10000000 10000000 10000000 763 10000000 10000000 10000000 0 10000000 10000000 10000000 10000000 10000000 810 10000000 10000000 983 561 788 881 10000000 10000000 10000000 837 10000000 549 10000000 10000000 10000000 10000000 10000000 
0 10000000 10000000 10000000 10000000 10000000 10000000 10000000 10000000 10000000 527 812 10000000 10000000 10000000 10000000 10000000 0 10000000 10000000 10000000 972 10000000 686 10000000 10000000 10000000 10000000 10000000 10000000 10000000 10000000 10000000 614 10000000 10000000 10000000 10000000 859 10000000 
0 1061 10000000 10000000 10000000 552 392 10000000 10000000 358 10000000 10000000 10000000 749 981 792 10000000 10000000 0 651 193 10000000 613 10000000 10000000 10000000 10000000 10000000 10000000 622 870 901 10000000 10000000 10000000 587 10000000 791 1064 10000000 
0 10000000 10000000 10000000 10000000 982 854 10000000 10000000 408 10000000 10000000 10000000 125 10000000 318 10000000 10000000 651 0 634 759 585 10000000 10000000 10000000 10000000 10000000 10000000 266 10000000 292 10000000 10000000 999 654 919 217 10000000 10000000 
0 1158 10000000 10000000 10000000 407 247 10000000 10000000 257 10000000 10000000 10000000 748 10000000 700 10000000 10000000 193 634 0 10000000 448 10000000 10000000 10000000 10000000 10000000 10000000 684 994 910 10000000 10000000 10000000 736 10000000 725 10000000 10000000 
0 10000000 10000000 10000000 10000000 10000000 10000000 10000000 10000000 10000000 10000000 10000000 10000000 676 10000000 10000000 10000000 943 10000000 759 10000000 0 10000000 10000000 10000000 10000000 10000000 10000000 10000000 543 941 614 10000000 946 10000000 597 10000000 920 959 10000000 
0 10000000 10000000 10000000 10000000 535 498 722 1176 305 10000000 10000000 10000000 706 10000000 426 810 10000000 613 585 448 10000000 0 10000000 10000000 10000000 861 937 10000000 780 10000000 863 999 10000000 730 974 988 528 10000000 10000000 
0 10000000 10000000 10000000 10000000 10000000 10000000 10000000 795 10000000 447 291 10000000 10000000 970 10000000 10000000 686 10000000 10000000 10000000 10000000 10000000 0 1065 893 797 801 505 10000000 10000000 10000000 10000000 560 1011 10000000 10000000 10000000 807 10000000 
0 10000000 10000000 10000000 10000000 10000000 10000000 10000000 10000000 10000000 1029 10000000 10000000 10000000 10000000 790 10000000 10000000 10000000 10000000 10000000 10000000 10000000 1021 0 10000000 587 360 10000000 10000000 10000000 10000000 10000000 10000000 580 10000000 196 835 10000000 10000000 
0 10000000 10000000 845 878 10000000 10000000 10000000 403 10000000 10000000 618 664 10000000 542 10000000 957 10000000 10000000 10000000 10000000 10000000 10000000 893 10000000 0 10000000 10000000 388 10000000 840 10000000 10000000 813 10000000 10000000 10000000 10000000 753 255 
0 10000000 10000000 10000000 931 10000000 10000000 624 765 10000000 10000000 874 10000000 10000000 10000000 815 561 10000000 10000000 10000000 10000000 10000000 861 797 587 10000000 0 233 874 10000000 10000000 10000000 10000000 10000000 207 10000000 673 921 10000000 10000000 
0 10000000 10000000 10000000 10000000 10000000 10000000 831 961 10000000 932 1030 10000000 10000000 10000000 779 788 10000000 10000000 10000000 10000000 10000000 937 801 360 10000000 233 0 1081 10000000 10000000 10000000 10000000 10000000 306 10000000 474 864 10000000 10000000 
0 10000000 10000000 10000000 995 10000000 10000000 10000000 402 10000000 949 244 918 10000000 626 10000000 881 10000000 10000000 10000000 10000000 10000000 10000000 505 10000000 388 874 1050 0 10000000 811 10000000 10000000 571 1049 10000000 10000000 10000000 650 632 
0 10000000 10000000 10000000 10000000 10000000 930 10000000 10000000 527 10000000 10000000 10000000 251 10000000 577 10000000 10000000 622 266 684 543 780 10000000 10000000 10000000 10000000 10000000 10000000 0 879 338 10000000 979 10000000 433 10000000 478 994 10000000 
0 10000000 10000000 10000000 10000000 10000000 10000000 10000000 10000000 1014 10000000 791 10000000 10000000 328 10000000 10000000 10000000 870 10000000 994 941 10000000 10000000 10000000 840 10000000 10000000 811 879 0 10000000 10000000 482 10000000 519 10000000 10000000 206 862 
0 10000000 10000000 10000000 10000000 10000000 10000000 10000000 10000000 698 10000000 10000000 10000000 168 10000000 509 10000000 10000000 901 292 910 614 863 10000000 10000000 10000000 10000000 10000000 10000000 338 10000000 0 10000000 10000000 10000000 756 917 375 10000000 10000000 
0 905 266 779 678 737 909 733 10000000 10000000 10000000 10000000 913 10000000 10000000 10000000 837 10000000 10000000 10000000 10000000 10000000 999 10000000 10000000 10000000 10000000 10000000 10000000 10000000 10000000 10000000 0 10000000 10000000 10000000 10000000 10000000 10000000 10000000 
0 10000000 10000000 10000000 10000000 10000000 10000000 10000000 955 10000000 819 421 10000000 10000000 561 10000000 10000000 614 10000000 10000000 10000000 946 10000000 560 10000000 813 10000000 10000000 571 972 482 10000000 10000000 0 10000000 771 10000000 10000000 285 961 
0 10000000 10000000 10000000 936 10000000 10000000 549 856 966 10000000 10000000 10000000 10000000 10000000 703 549 10000000 10000000 999 10000000 10000000 730 1017 580 10000000 207 306 1077 10000000 10000000 10000000 10000000 10000000 0 10000000 606 821 10000000 10000000 
0 10000000 10000000 10000000 10000000 10000000 960 10000000 10000000 697 10000000 10000000 10000000 673 768 914 10000000 10000000 587 654 736 597 974 10000000 10000000 10000000 10000000 10000000 10000000 433 519 756 10000000 771 10000000 0 10000000 852 624 10000000 
0 10000000 10000000 10000000 10000000 10000000 10000000 10000000 10000000 10000000 10000000 10000000 10000000 916 10000000 677 10000000 10000000 10000000 919 10000000 10000000 988 10000000 196 10000000 673 474 10000000 10000000 10000000 917 10000000 10000000 606 10000000 0 716 10000000 10000000 
0 10000000 10000000 10000000 10000000 10000000 909 10000000 10000000 473 10000000 10000000 10000000 266 10000000 134 10000000 10000000 791 217 725 920 528 10000000 835 10000000 921 864 10000000 478 10000000 375 10000000 10000000 821 852 716 0 10000000 10000000 
0 10000000 10000000 10000000 10000000 10000000 10000000 10000000 985 10000000 10000000 600 10000000 10000000 331 10000000 10000000 859 1086 10000000 10000000 959 10000000 807 10000000 753 10000000 10000000 650 992 206 10000000 10000000 285 10000000 624 10000000 10000000 0 829 
0 10000000 10000000 10000000 10000000 10000000 10000000 10000000 10000000 10000000 10000000 10000000 10000000 10000000 10000000 10000000 10000000 10000000 10000000 10000000 10000000 10000000 10000000 10000000 10000000 10000000 10000000 10000000 10000000 10000000 10000000 10000000 10000000 10000000 10000000 10000000 10000000 10000000 10000000 0 
EOF